param n := 2;

param m := 2;

param K := 500;

param a :=
1 	 0.000402
2 	 0.976759
;
 param A :=
[1, *, *]:  1	2	:=
1	-0.246839	0.209432	
2	0.947567	0.657692	

[2, *, *]:  1	2	:=
1	0.149423	-0.428847	
2	0.256152	0.173667	
;